c turning on binary mode checking
c parsing input formula with 202048 variables and 780985 clauses
c finished parsing, read 2288084 bytes from proof file
c detected empty clause; start verification via backward checking
c 1408 of 780985 clauses in core                            
c 401 of 92937 lemmas in core using 9454 resolution steps
c 0 RAT lemmas in core; 15 redundant literals in core lemmas
s VERIFIED
c verification time: 1.104 seconds
